# optimasi ion tetraammin tembaga(II)
! PBE def2-SVP Opt
* xyz 2 2
	Cu        -0.20428        0.43186       -0.00348
	N         -0.24346        2.20180       -0.87133
	N         -1.97053        0.40159        0.86975
	N         -0.16508       -1.33810       -0.87131
	N          1.56196        0.46215        0.86976
	H         -0.25077        2.84339       -0.04131
	H         -1.10621        2.40606       -1.40872
	H          0.62256        2.44072       -1.41186
	H         -2.61704        0.38688        0.04370
	H         -2.20214        1.25425        1.41197
	H         -2.17085       -0.47465        1.40945
	H         -0.15739       -1.97967       -0.04129
	H         -1.03127       -1.57715       -1.41151
	H          0.69750       -1.54224       -1.40902
	H          2.20846        0.47794        0.04372
	H          1.76195        1.33788        1.41039
	H          1.79391       -0.39101        1.41107
*

